c description: Graph pigeonhole principle formula on fast_gnp_random_graph(20,10,0.9)
c generator: CNFgen (0.9.0)
c copyright: (C) 2012-2020 Massimo Lauria <massimo.lauria@uniroma1.it>
c url: https://massimolauria.net/cnfgen
c
p cnf 187 1681
1 2 3 4 5 6 7 8 9 10 0
11 12 13 14 15 16 17 18 19 0
20 21 22 23 24 25 26 27 0
28 29 30 31 32 33 34 35 36 37 0
38 39 40 41 42 43 44 45 46 0
47 48 49 50 51 52 53 54 55 56 0
57 58 59 60 61 62 63 64 65 0
66 67 68 69 70 71 72 73 74 75 0
76 77 78 79 80 81 82 83 84 0
85 86 87 88 89 90 91 92 93 0
94 95 96 97 98 99 100 101 102 0
103 104 105 106 107 108 109 110 111 112 0
113 114 115 116 117 118 119 120 121 0
122 123 124 125 126 127 128 129 130 0
131 132 133 134 135 136 137 138 139 140 0
141 142 143 144 145 146 147 148 149 150 0
151 152 153 154 155 156 157 158 159 160 0
161 162 163 164 165 166 167 168 0
169 170 171 172 173 174 175 176 177 0
178 179 180 181 182 183 184 185 186 187 0
-1 -11 0
-1 -20 0
-1 -28 0
-1 -38 0
-1 -47 0
-1 -66 0
-1 -76 0
-1 -85 0
-1 -94 0
-1 -103 0
-1 -113 0
-1 -122 0
-1 -131 0
-1 -141 0
-1 -151 0
-1 -161 0
-1 -169 0
-1 -178 0
-11 -20 0
-11 -28 0
-11 -38 0
-11 -47 0
-11 -66 0
-11 -76 0
-11 -85 0
-11 -94 0
-11 -103 0
-11 -113 0
-11 -122 0
-11 -131 0
-11 -141 0
-11 -151 0
-11 -161 0
-11 -169 0
-11 -178 0
-20 -28 0
-20 -38 0
-20 -47 0
-20 -66 0
-20 -76 0
-20 -85 0
-20 -94 0
-20 -103 0
-20 -113 0
-20 -122 0
-20 -131 0
-20 -141 0
-20 -151 0
-20 -161 0
-20 -169 0
-20 -178 0
-28 -38 0
-28 -47 0
-28 -66 0
-28 -76 0
-28 -85 0
-28 -94 0
-28 -103 0
-28 -113 0
-28 -122 0
-28 -131 0
-28 -141 0
-28 -151 0
-28 -161 0
-28 -169 0
-28 -178 0
-38 -47 0
-38 -66 0
-38 -76 0
-38 -85 0
-38 -94 0
-38 -103 0
-38 -113 0
-38 -122 0
-38 -131 0
-38 -141 0
-38 -151 0
-38 -161 0
-38 -169 0
-38 -178 0
-47 -66 0
-47 -76 0
-47 -85 0
-47 -94 0
-47 -103 0
-47 -113 0
-47 -122 0
-47 -131 0
-47 -141 0
-47 -151 0
-47 -161 0
-47 -169 0
-47 -178 0
-66 -76 0
-66 -85 0
-66 -94 0
-66 -103 0
-66 -113 0
-66 -122 0
-66 -131 0
-66 -141 0
-66 -151 0
-66 -161 0
-66 -169 0
-66 -178 0
-76 -85 0
-76 -94 0
-76 -103 0
-76 -113 0
-76 -122 0
-76 -131 0
-76 -141 0
-76 -151 0
-76 -161 0
-76 -169 0
-76 -178 0
-85 -94 0
-85 -103 0
-85 -113 0
-85 -122 0
-85 -131 0
-85 -141 0
-85 -151 0
-85 -161 0
-85 -169 0
-85 -178 0
-94 -103 0
-94 -113 0
-94 -122 0
-94 -131 0
-94 -141 0
-94 -151 0
-94 -161 0
-94 -169 0
-94 -178 0
-103 -113 0
-103 -122 0
-103 -131 0
-103 -141 0
-103 -151 0
-103 -161 0
-103 -169 0
-103 -178 0
-113 -122 0
-113 -131 0
-113 -141 0
-113 -151 0
-113 -161 0
-113 -169 0
-113 -178 0
-122 -131 0
-122 -141 0
-122 -151 0
-122 -161 0
-122 -169 0
-122 -178 0
-131 -141 0
-131 -151 0
-131 -161 0
-131 -169 0
-131 -178 0
-141 -151 0
-141 -161 0
-141 -169 0
-141 -178 0
-151 -161 0
-151 -169 0
-151 -178 0
-161 -169 0
-161 -178 0
-169 -178 0
-2 -12 0
-2 -21 0
-2 -29 0
-2 -48 0
-2 -57 0
-2 -67 0
-2 -77 0
-2 -86 0
-2 -95 0
-2 -104 0
-2 -114 0
-2 -123 0
-2 -132 0
-2 -142 0
-2 -152 0
-2 -170 0
-2 -179 0
-12 -21 0
-12 -29 0
-12 -48 0
-12 -57 0
-12 -67 0
-12 -77 0
-12 -86 0
-12 -95 0
-12 -104 0
-12 -114 0
-12 -123 0
-12 -132 0
-12 -142 0
-12 -152 0
-12 -170 0
-12 -179 0
-21 -29 0
-21 -48 0
-21 -57 0
-21 -67 0
-21 -77 0
-21 -86 0
-21 -95 0
-21 -104 0
-21 -114 0
-21 -123 0
-21 -132 0
-21 -142 0
-21 -152 0
-21 -170 0
-21 -179 0
-29 -48 0
-29 -57 0
-29 -67 0
-29 -77 0
-29 -86 0
-29 -95 0
-29 -104 0
-29 -114 0
-29 -123 0
-29 -132 0
-29 -142 0
-29 -152 0
-29 -170 0
-29 -179 0
-48 -57 0
-48 -67 0
-48 -77 0
-48 -86 0
-48 -95 0
-48 -104 0
-48 -114 0
-48 -123 0
-48 -132 0
-48 -142 0
-48 -152 0
-48 -170 0
-48 -179 0
-57 -67 0
-57 -77 0
-57 -86 0
-57 -95 0
-57 -104 0
-57 -114 0
-57 -123 0
-57 -132 0
-57 -142 0
-57 -152 0
-57 -170 0
-57 -179 0
-67 -77 0
-67 -86 0
-67 -95 0
-67 -104 0
-67 -114 0
-67 -123 0
-67 -132 0
-67 -142 0
-67 -152 0
-67 -170 0
-67 -179 0
-77 -86 0
-77 -95 0
-77 -104 0
-77 -114 0
-77 -123 0
-77 -132 0
-77 -142 0
-77 -152 0
-77 -170 0
-77 -179 0
-86 -95 0
-86 -104 0
-86 -114 0
-86 -123 0
-86 -132 0
-86 -142 0
-86 -152 0
-86 -170 0
-86 -179 0
-95 -104 0
-95 -114 0
-95 -123 0
-95 -132 0
-95 -142 0
-95 -152 0
-95 -170 0
-95 -179 0
-104 -114 0
-104 -123 0
-104 -132 0
-104 -142 0
-104 -152 0
-104 -170 0
-104 -179 0
-114 -123 0
-114 -132 0
-114 -142 0
-114 -152 0
-114 -170 0
-114 -179 0
-123 -132 0
-123 -142 0
-123 -152 0
-123 -170 0
-123 -179 0
-132 -142 0
-132 -152 0
-132 -170 0
-132 -179 0
-142 -152 0
-142 -170 0
-142 -179 0
-152 -170 0
-152 -179 0
-170 -179 0
-3 -13 0
-3 -22 0
-3 -30 0
-3 -39 0
-3 -49 0
-3 -58 0
-3 -68 0
-3 -87 0
-3 -96 0
-3 -105 0
-3 -115 0
-3 -124 0
-3 -133 0
-3 -143 0
-3 -153 0
-3 -162 0
-3 -171 0
-3 -180 0
-13 -22 0
-13 -30 0
-13 -39 0
-13 -49 0
-13 -58 0
-13 -68 0
-13 -87 0
-13 -96 0
-13 -105 0
-13 -115 0
-13 -124 0
-13 -133 0
-13 -143 0
-13 -153 0
-13 -162 0
-13 -171 0
-13 -180 0
-22 -30 0
-22 -39 0
-22 -49 0
-22 -58 0
-22 -68 0
-22 -87 0
-22 -96 0
-22 -105 0
-22 -115 0
-22 -124 0
-22 -133 0
-22 -143 0
-22 -153 0
-22 -162 0
-22 -171 0
-22 -180 0
-30 -39 0
-30 -49 0
-30 -58 0
-30 -68 0
-30 -87 0
-30 -96 0
-30 -105 0
-30 -115 0
-30 -124 0
-30 -133 0
-30 -143 0
-30 -153 0
-30 -162 0
-30 -171 0
-30 -180 0
-39 -49 0
-39 -58 0
-39 -68 0
-39 -87 0
-39 -96 0
-39 -105 0
-39 -115 0
-39 -124 0
-39 -133 0
-39 -143 0
-39 -153 0
-39 -162 0
-39 -171 0
-39 -180 0
-49 -58 0
-49 -68 0
-49 -87 0
-49 -96 0
-49 -105 0
-49 -115 0
-49 -124 0
-49 -133 0
-49 -143 0
-49 -153 0
-49 -162 0
-49 -171 0
-49 -180 0
-58 -68 0
-58 -87 0
-58 -96 0
-58 -105 0
-58 -115 0
-58 -124 0
-58 -133 0
-58 -143 0
-58 -153 0
-58 -162 0
-58 -171 0
-58 -180 0
-68 -87 0
-68 -96 0
-68 -105 0
-68 -115 0
-68 -124 0
-68 -133 0
-68 -143 0
-68 -153 0
-68 -162 0
-68 -171 0
-68 -180 0
-87 -96 0
-87 -105 0
-87 -115 0
-87 -124 0
-87 -133 0
-87 -143 0
-87 -153 0
-87 -162 0
-87 -171 0
-87 -180 0
-96 -105 0
-96 -115 0
-96 -124 0
-96 -133 0
-96 -143 0
-96 -153 0
-96 -162 0
-96 -171 0
-96 -180 0
-105 -115 0
-105 -124 0
-105 -133 0
-105 -143 0
-105 -153 0
-105 -162 0
-105 -171 0
-105 -180 0
-115 -124 0
-115 -133 0
-115 -143 0
-115 -153 0
-115 -162 0
-115 -171 0
-115 -180 0
-124 -133 0
-124 -143 0
-124 -153 0
-124 -162 0
-124 -171 0
-124 -180 0
-133 -143 0
-133 -153 0
-133 -162 0
-133 -171 0
-133 -180 0
-143 -153 0
-143 -162 0
-143 -171 0
-143 -180 0
-153 -162 0
-153 -171 0
-153 -180 0
-162 -171 0
-162 -180 0
-171 -180 0
-4 -23 0
-4 -31 0
-4 -40 0
-4 -50 0
-4 -59 0
-4 -69 0
-4 -78 0
-4 -88 0
-4 -97 0
-4 -106 0
-4 -116 0
-4 -125 0
-4 -134 0
-4 -144 0
-4 -154 0
-4 -172 0
-4 -181 0
-23 -31 0
-23 -40 0
-23 -50 0
-23 -59 0
-23 -69 0
-23 -78 0
-23 -88 0
-23 -97 0
-23 -106 0
-23 -116 0
-23 -125 0
-23 -134 0
-23 -144 0
-23 -154 0
-23 -172 0
-23 -181 0
-31 -40 0
-31 -50 0
-31 -59 0
-31 -69 0
-31 -78 0
-31 -88 0
-31 -97 0
-31 -106 0
-31 -116 0
-31 -125 0
-31 -134 0
-31 -144 0
-31 -154 0
-31 -172 0
-31 -181 0
-40 -50 0
-40 -59 0
-40 -69 0
-40 -78 0
-40 -88 0
-40 -97 0
-40 -106 0
-40 -116 0
-40 -125 0
-40 -134 0
-40 -144 0
-40 -154 0
-40 -172 0
-40 -181 0
-50 -59 0
-50 -69 0
-50 -78 0
-50 -88 0
-50 -97 0
-50 -106 0
-50 -116 0
-50 -125 0
-50 -134 0
-50 -144 0
-50 -154 0
-50 -172 0
-50 -181 0
-59 -69 0
-59 -78 0
-59 -88 0
-59 -97 0
-59 -106 0
-59 -116 0
-59 -125 0
-59 -134 0
-59 -144 0
-59 -154 0
-59 -172 0
-59 -181 0
-69 -78 0
-69 -88 0
-69 -97 0
-69 -106 0
-69 -116 0
-69 -125 0
-69 -134 0
-69 -144 0
-69 -154 0
-69 -172 0
-69 -181 0
-78 -88 0
-78 -97 0
-78 -106 0
-78 -116 0
-78 -125 0
-78 -134 0
-78 -144 0
-78 -154 0
-78 -172 0
-78 -181 0
-88 -97 0
-88 -106 0
-88 -116 0
-88 -125 0
-88 -134 0
-88 -144 0
-88 -154 0
-88 -172 0
-88 -181 0
-97 -106 0
-97 -116 0
-97 -125 0
-97 -134 0
-97 -144 0
-97 -154 0
-97 -172 0
-97 -181 0
-106 -116 0
-106 -125 0
-106 -134 0
-106 -144 0
-106 -154 0
-106 -172 0
-106 -181 0
-116 -125 0
-116 -134 0
-116 -144 0
-116 -154 0
-116 -172 0
-116 -181 0
-125 -134 0
-125 -144 0
-125 -154 0
-125 -172 0
-125 -181 0
-134 -144 0
-134 -154 0
-134 -172 0
-134 -181 0
-144 -154 0
-144 -172 0
-144 -181 0
-154 -172 0
-154 -181 0
-172 -181 0
-5 -14 0
-5 -24 0
-5 -32 0
-5 -41 0
-5 -51 0
-5 -60 0
-5 -70 0
-5 -79 0
-5 -89 0
-5 -98 0
-5 -107 0
-5 -117 0
-5 -126 0
-5 -135 0
-5 -145 0
-5 -155 0
-5 -163 0
-5 -173 0
-5 -182 0
-14 -24 0
-14 -32 0
-14 -41 0
-14 -51 0
-14 -60 0
-14 -70 0
-14 -79 0
-14 -89 0
-14 -98 0
-14 -107 0
-14 -117 0
-14 -126 0
-14 -135 0
-14 -145 0
-14 -155 0
-14 -163 0
-14 -173 0
-14 -182 0
-24 -32 0
-24 -41 0
-24 -51 0
-24 -60 0
-24 -70 0
-24 -79 0
-24 -89 0
-24 -98 0
-24 -107 0
-24 -117 0
-24 -126 0
-24 -135 0
-24 -145 0
-24 -155 0
-24 -163 0
-24 -173 0
-24 -182 0
-32 -41 0
-32 -51 0
-32 -60 0
-32 -70 0
-32 -79 0
-32 -89 0
-32 -98 0
-32 -107 0
-32 -117 0
-32 -126 0
-32 -135 0
-32 -145 0
-32 -155 0
-32 -163 0
-32 -173 0
-32 -182 0
-41 -51 0
-41 -60 0
-41 -70 0
-41 -79 0
-41 -89 0
-41 -98 0
-41 -107 0
-41 -117 0
-41 -126 0
-41 -135 0
-41 -145 0
-41 -155 0
-41 -163 0
-41 -173 0
-41 -182 0
-51 -60 0
-51 -70 0
-51 -79 0
-51 -89 0
-51 -98 0
-51 -107 0
-51 -117 0
-51 -126 0
-51 -135 0
-51 -145 0
-51 -155 0
-51 -163 0
-51 -173 0
-51 -182 0
-60 -70 0
-60 -79 0
-60 -89 0
-60 -98 0
-60 -107 0
-60 -117 0
-60 -126 0
-60 -135 0
-60 -145 0
-60 -155 0
-60 -163 0
-60 -173 0
-60 -182 0
-70 -79 0
-70 -89 0
-70 -98 0
-70 -107 0
-70 -117 0
-70 -126 0
-70 -135 0
-70 -145 0
-70 -155 0
-70 -163 0
-70 -173 0
-70 -182 0
-79 -89 0
-79 -98 0
-79 -107 0
-79 -117 0
-79 -126 0
-79 -135 0
-79 -145 0
-79 -155 0
-79 -163 0
-79 -173 0
-79 -182 0
-89 -98 0
-89 -107 0
-89 -117 0
-89 -126 0
-89 -135 0
-89 -145 0
-89 -155 0
-89 -163 0
-89 -173 0
-89 -182 0
-98 -107 0
-98 -117 0
-98 -126 0
-98 -135 0
-98 -145 0
-98 -155 0
-98 -163 0
-98 -173 0
-98 -182 0
-107 -117 0
-107 -126 0
-107 -135 0
-107 -145 0
-107 -155 0
-107 -163 0
-107 -173 0
-107 -182 0
-117 -126 0
-117 -135 0
-117 -145 0
-117 -155 0
-117 -163 0
-117 -173 0
-117 -182 0
-126 -135 0
-126 -145 0
-126 -155 0
-126 -163 0
-126 -173 0
-126 -182 0
-135 -145 0
-135 -155 0
-135 -163 0
-135 -173 0
-135 -182 0
-145 -155 0
-145 -163 0
-145 -173 0
-145 -182 0
-155 -163 0
-155 -173 0
-155 -182 0
-163 -173 0
-163 -182 0
-173 -182 0
-6 -15 0
-6 -33 0
-6 -42 0
-6 -52 0
-6 -61 0
-6 -71 0
-6 -80 0
-6 -108 0
-6 -118 0
-6 -136 0
-6 -146 0
-6 -156 0
-6 -164 0
-6 -174 0
-6 -183 0
-15 -33 0
-15 -42 0
-15 -52 0
-15 -61 0
-15 -71 0
-15 -80 0
-15 -108 0
-15 -118 0
-15 -136 0
-15 -146 0
-15 -156 0
-15 -164 0
-15 -174 0
-15 -183 0
-33 -42 0
-33 -52 0
-33 -61 0
-33 -71 0
-33 -80 0
-33 -108 0
-33 -118 0
-33 -136 0
-33 -146 0
-33 -156 0
-33 -164 0
-33 -174 0
-33 -183 0
-42 -52 0
-42 -61 0
-42 -71 0
-42 -80 0
-42 -108 0
-42 -118 0
-42 -136 0
-42 -146 0
-42 -156 0
-42 -164 0
-42 -174 0
-42 -183 0
-52 -61 0
-52 -71 0
-52 -80 0
-52 -108 0
-52 -118 0
-52 -136 0
-52 -146 0
-52 -156 0
-52 -164 0
-52 -174 0
-52 -183 0
-61 -71 0
-61 -80 0
-61 -108 0
-61 -118 0
-61 -136 0
-61 -146 0
-61 -156 0
-61 -164 0
-61 -174 0
-61 -183 0
-71 -80 0
-71 -108 0
-71 -118 0
-71 -136 0
-71 -146 0
-71 -156 0
-71 -164 0
-71 -174 0
-71 -183 0
-80 -108 0
-80 -118 0
-80 -136 0
-80 -146 0
-80 -156 0
-80 -164 0
-80 -174 0
-80 -183 0
-108 -118 0
-108 -136 0
-108 -146 0
-108 -156 0
-108 -164 0
-108 -174 0
-108 -183 0
-118 -136 0
-118 -146 0
-118 -156 0
-118 -164 0
-118 -174 0
-118 -183 0
-136 -146 0
-136 -156 0
-136 -164 0
-136 -174 0
-136 -183 0
-146 -156 0
-146 -164 0
-146 -174 0
-146 -183 0
-156 -164 0
-156 -174 0
-156 -183 0
-164 -174 0
-164 -183 0
-174 -183 0
-7 -16 0
-7 -25 0
-7 -34 0
-7 -43 0
-7 -53 0
-7 -62 0
-7 -72 0
-7 -81 0
-7 -90 0
-7 -99 0
-7 -109 0
-7 -127 0
-7 -137 0
-7 -147 0
-7 -157 0
-7 -165 0
-7 -175 0
-7 -184 0
-16 -25 0
-16 -34 0
-16 -43 0
-16 -53 0
-16 -62 0
-16 -72 0
-16 -81 0
-16 -90 0
-16 -99 0
-16 -109 0
-16 -127 0
-16 -137 0
-16 -147 0
-16 -157 0
-16 -165 0
-16 -175 0
-16 -184 0
-25 -34 0
-25 -43 0
-25 -53 0
-25 -62 0
-25 -72 0
-25 -81 0
-25 -90 0
-25 -99 0
-25 -109 0
-25 -127 0
-25 -137 0
-25 -147 0
-25 -157 0
-25 -165 0
-25 -175 0
-25 -184 0
-34 -43 0
-34 -53 0
-34 -62 0
-34 -72 0
-34 -81 0
-34 -90 0
-34 -99 0
-34 -109 0
-34 -127 0
-34 -137 0
-34 -147 0
-34 -157 0
-34 -165 0
-34 -175 0
-34 -184 0
-43 -53 0
-43 -62 0
-43 -72 0
-43 -81 0
-43 -90 0
-43 -99 0
-43 -109 0
-43 -127 0
-43 -137 0
-43 -147 0
-43 -157 0
-43 -165 0
-43 -175 0
-43 -184 0
-53 -62 0
-53 -72 0
-53 -81 0
-53 -90 0
-53 -99 0
-53 -109 0
-53 -127 0
-53 -137 0
-53 -147 0
-53 -157 0
-53 -165 0
-53 -175 0
-53 -184 0
-62 -72 0
-62 -81 0
-62 -90 0
-62 -99 0
-62 -109 0
-62 -127 0
-62 -137 0
-62 -147 0
-62 -157 0
-62 -165 0
-62 -175 0
-62 -184 0
-72 -81 0
-72 -90 0
-72 -99 0
-72 -109 0
-72 -127 0
-72 -137 0
-72 -147 0
-72 -157 0
-72 -165 0
-72 -175 0
-72 -184 0
-81 -90 0
-81 -99 0
-81 -109 0
-81 -127 0
-81 -137 0
-81 -147 0
-81 -157 0
-81 -165 0
-81 -175 0
-81 -184 0
-90 -99 0
-90 -109 0
-90 -127 0
-90 -137 0
-90 -147 0
-90 -157 0
-90 -165 0
-90 -175 0
-90 -184 0
-99 -109 0
-99 -127 0
-99 -137 0
-99 -147 0
-99 -157 0
-99 -165 0
-99 -175 0
-99 -184 0
-109 -127 0
-109 -137 0
-109 -147 0
-109 -157 0
-109 -165 0
-109 -175 0
-109 -184 0
-127 -137 0
-127 -147 0
-127 -157 0
-127 -165 0
-127 -175 0
-127 -184 0
-137 -147 0
-137 -157 0
-137 -165 0
-137 -175 0
-137 -184 0
-147 -157 0
-147 -165 0
-147 -175 0
-147 -184 0
-157 -165 0
-157 -175 0
-157 -184 0
-165 -175 0
-165 -184 0
-175 -184 0
-8 -17 0
-8 -26 0
-8 -35 0
-8 -44 0
-8 -54 0
-8 -63 0
-8 -73 0
-8 -82 0
-8 -91 0
-8 -100 0
-8 -110 0
-8 -119 0
-8 -128 0
-8 -138 0
-8 -148 0
-8 -158 0
-8 -166 0
-8 -176 0
-8 -185 0
-17 -26 0
-17 -35 0
-17 -44 0
-17 -54 0
-17 -63 0
-17 -73 0
-17 -82 0
-17 -91 0
-17 -100 0
-17 -110 0
-17 -119 0
-17 -128 0
-17 -138 0
-17 -148 0
-17 -158 0
-17 -166 0
-17 -176 0
-17 -185 0
-26 -35 0
-26 -44 0
-26 -54 0
-26 -63 0
-26 -73 0
-26 -82 0
-26 -91 0
-26 -100 0
-26 -110 0
-26 -119 0
-26 -128 0
-26 -138 0
-26 -148 0
-26 -158 0
-26 -166 0
-26 -176 0
-26 -185 0
-35 -44 0
-35 -54 0
-35 -63 0
-35 -73 0
-35 -82 0
-35 -91 0
-35 -100 0
-35 -110 0
-35 -119 0
-35 -128 0
-35 -138 0
-35 -148 0
-35 -158 0
-35 -166 0
-35 -176 0
-35 -185 0
-44 -54 0
-44 -63 0
-44 -73 0
-44 -82 0
-44 -91 0
-44 -100 0
-44 -110 0
-44 -119 0
-44 -128 0
-44 -138 0
-44 -148 0
-44 -158 0
-44 -166 0
-44 -176 0
-44 -185 0
-54 -63 0
-54 -73 0
-54 -82 0
-54 -91 0
-54 -100 0
-54 -110 0
-54 -119 0
-54 -128 0
-54 -138 0
-54 -148 0
-54 -158 0
-54 -166 0
-54 -176 0
-54 -185 0
-63 -73 0
-63 -82 0
-63 -91 0
-63 -100 0
-63 -110 0
-63 -119 0
-63 -128 0
-63 -138 0
-63 -148 0
-63 -158 0
-63 -166 0
-63 -176 0
-63 -185 0
-73 -82 0
-73 -91 0
-73 -100 0
-73 -110 0
-73 -119 0
-73 -128 0
-73 -138 0
-73 -148 0
-73 -158 0
-73 -166 0
-73 -176 0
-73 -185 0
-82 -91 0
-82 -100 0
-82 -110 0
-82 -119 0
-82 -128 0
-82 -138 0
-82 -148 0
-82 -158 0
-82 -166 0
-82 -176 0
-82 -185 0
-91 -100 0
-91 -110 0
-91 -119 0
-91 -128 0
-91 -138 0
-91 -148 0
-91 -158 0
-91 -166 0
-91 -176 0
-91 -185 0
-100 -110 0
-100 -119 0
-100 -128 0
-100 -138 0
-100 -148 0
-100 -158 0
-100 -166 0
-100 -176 0
-100 -185 0
-110 -119 0
-110 -128 0
-110 -138 0
-110 -148 0
-110 -158 0
-110 -166 0
-110 -176 0
-110 -185 0
-119 -128 0
-119 -138 0
-119 -148 0
-119 -158 0
-119 -166 0
-119 -176 0
-119 -185 0
-128 -138 0
-128 -148 0
-128 -158 0
-128 -166 0
-128 -176 0
-128 -185 0
-138 -148 0
-138 -158 0
-138 -166 0
-138 -176 0
-138 -185 0
-148 -158 0
-148 -166 0
-148 -176 0
-148 -185 0
-158 -166 0
-158 -176 0
-158 -185 0
-166 -176 0
-166 -185 0
-176 -185 0
-9 -18 0
-9 -27 0
-9 -36 0
-9 -45 0
-9 -55 0
-9 -64 0
-9 -74 0
-9 -83 0
-9 -92 0
-9 -101 0
-9 -111 0
-9 -120 0
-9 -129 0
-9 -139 0
-9 -149 0
-9 -159 0
-9 -167 0
-9 -186 0
-18 -27 0
-18 -36 0
-18 -45 0
-18 -55 0
-18 -64 0
-18 -74 0
-18 -83 0
-18 -92 0
-18 -101 0
-18 -111 0
-18 -120 0
-18 -129 0
-18 -139 0
-18 -149 0
-18 -159 0
-18 -167 0
-18 -186 0
-27 -36 0
-27 -45 0
-27 -55 0
-27 -64 0
-27 -74 0
-27 -83 0
-27 -92 0
-27 -101 0
-27 -111 0
-27 -120 0
-27 -129 0
-27 -139 0
-27 -149 0
-27 -159 0
-27 -167 0
-27 -186 0
-36 -45 0
-36 -55 0
-36 -64 0
-36 -74 0
-36 -83 0
-36 -92 0
-36 -101 0
-36 -111 0
-36 -120 0
-36 -129 0
-36 -139 0
-36 -149 0
-36 -159 0
-36 -167 0
-36 -186 0
-45 -55 0
-45 -64 0
-45 -74 0
-45 -83 0
-45 -92 0
-45 -101 0
-45 -111 0
-45 -120 0
-45 -129 0
-45 -139 0
-45 -149 0
-45 -159 0
-45 -167 0
-45 -186 0
-55 -64 0
-55 -74 0
-55 -83 0
-55 -92 0
-55 -101 0
-55 -111 0
-55 -120 0
-55 -129 0
-55 -139 0
-55 -149 0
-55 -159 0
-55 -167 0
-55 -186 0
-64 -74 0
-64 -83 0
-64 -92 0
-64 -101 0
-64 -111 0
-64 -120 0
-64 -129 0
-64 -139 0
-64 -149 0
-64 -159 0
-64 -167 0
-64 -186 0
-74 -83 0
-74 -92 0
-74 -101 0
-74 -111 0
-74 -120 0
-74 -129 0
-74 -139 0
-74 -149 0
-74 -159 0
-74 -167 0
-74 -186 0
-83 -92 0
-83 -101 0
-83 -111 0
-83 -120 0
-83 -129 0
-83 -139 0
-83 -149 0
-83 -159 0
-83 -167 0
-83 -186 0
-92 -101 0
-92 -111 0
-92 -120 0
-92 -129 0
-92 -139 0
-92 -149 0
-92 -159 0
-92 -167 0
-92 -186 0
-101 -111 0
-101 -120 0
-101 -129 0
-101 -139 0
-101 -149 0
-101 -159 0
-101 -167 0
-101 -186 0
-111 -120 0
-111 -129 0
-111 -139 0
-111 -149 0
-111 -159 0
-111 -167 0
-111 -186 0
-120 -129 0
-120 -139 0
-120 -149 0
-120 -159 0
-120 -167 0
-120 -186 0
-129 -139 0
-129 -149 0
-129 -159 0
-129 -167 0
-129 -186 0
-139 -149 0
-139 -159 0
-139 -167 0
-139 -186 0
-149 -159 0
-149 -167 0
-149 -186 0
-159 -167 0
-159 -186 0
-167 -186 0
-10 -19 0
-10 -37 0
-10 -46 0
-10 -56 0
-10 -65 0
-10 -75 0
-10 -84 0
-10 -93 0
-10 -102 0
-10 -112 0
-10 -121 0
-10 -130 0
-10 -140 0
-10 -150 0
-10 -160 0
-10 -168 0
-10 -177 0
-10 -187 0
-19 -37 0
-19 -46 0
-19 -56 0
-19 -65 0
-19 -75 0
-19 -84 0
-19 -93 0
-19 -102 0
-19 -112 0
-19 -121 0
-19 -130 0
-19 -140 0
-19 -150 0
-19 -160 0
-19 -168 0
-19 -177 0
-19 -187 0
-37 -46 0
-37 -56 0
-37 -65 0
-37 -75 0
-37 -84 0
-37 -93 0
-37 -102 0
-37 -112 0
-37 -121 0
-37 -130 0
-37 -140 0
-37 -150 0
-37 -160 0
-37 -168 0
-37 -177 0
-37 -187 0
-46 -56 0
-46 -65 0
-46 -75 0
-46 -84 0
-46 -93 0
-46 -102 0
-46 -112 0
-46 -121 0
-46 -130 0
-46 -140 0
-46 -150 0
-46 -160 0
-46 -168 0
-46 -177 0
-46 -187 0
-56 -65 0
-56 -75 0
-56 -84 0
-56 -93 0
-56 -102 0
-56 -112 0
-56 -121 0
-56 -130 0
-56 -140 0
-56 -150 0
-56 -160 0
-56 -168 0
-56 -177 0
-56 -187 0
-65 -75 0
-65 -84 0
-65 -93 0
-65 -102 0
-65 -112 0
-65 -121 0
-65 -130 0
-65 -140 0
-65 -150 0
-65 -160 0
-65 -168 0
-65 -177 0
-65 -187 0
-75 -84 0
-75 -93 0
-75 -102 0
-75 -112 0
-75 -121 0
-75 -130 0
-75 -140 0
-75 -150 0
-75 -160 0
-75 -168 0
-75 -177 0
-75 -187 0
-84 -93 0
-84 -102 0
-84 -112 0
-84 -121 0
-84 -130 0
-84 -140 0
-84 -150 0
-84 -160 0
-84 -168 0
-84 -177 0
-84 -187 0
-93 -102 0
-93 -112 0
-93 -121 0
-93 -130 0
-93 -140 0
-93 -150 0
-93 -160 0
-93 -168 0
-93 -177 0
-93 -187 0
-102 -112 0
-102 -121 0
-102 -130 0
-102 -140 0
-102 -150 0
-102 -160 0
-102 -168 0
-102 -177 0
-102 -187 0
-112 -121 0
-112 -130 0
-112 -140 0
-112 -150 0
-112 -160 0
-112 -168 0
-112 -177 0
-112 -187 0
-121 -130 0
-121 -140 0
-121 -150 0
-121 -160 0
-121 -168 0
-121 -177 0
-121 -187 0
-130 -140 0
-130 -150 0
-130 -160 0
-130 -168 0
-130 -177 0
-130 -187 0
-140 -150 0
-140 -160 0
-140 -168 0
-140 -177 0
-140 -187 0
-150 -160 0
-150 -168 0
-150 -177 0
-150 -187 0
-160 -168 0
-160 -177 0
-160 -187 0
-168 -177 0
-168 -187 0
-177 -187 0